p tw 100 1725
1 22
1 36
1 49
1 62
1 74
1 83
1 88
1 96
1 2
1 65
1 46
1 68
1 3
1 8
1 10
1 42
1 59
1 60
1 61
1 63
1 64
1 66
1 67
1 69
1 70
1 81
1 82
1 84
1 86
1 87
1 91
1 79
1 90
1 6
1 7
1 9
1 11
1 12
1 14
1 85
1 80
1 78
1 76
1 75
1 73
1 72
1 71
1 58
1 56
1 55
1 54
1 52
1 51
1 50
1 48
1 47
1 20
1 19
1 18
1 40
1 57
1 35
1 24
1 13
1 89
1 77
1 53
1 41
1 29
1 17
1 5
1 100
1 99
1 98
1 97
1 95
1 94
1 93
1 92
1 44
1 45
1 43
1 4
2 65
2 46
2 68
2 3
2 8
2 10
2 42
2 59
2 60
2 61
2 63
2 64
2 66
2 67
2 69
2 70
2 81
2 82
2 84
2 86
2 87
2 91
2 79
2 90
2 6
2 7
2 9
2 11
2 12
2 14
2 55
2 54
2 52
2 51
2 50
2 48
5 29
5 17
17 89
17 77
17 53
17 41
17 29
29 89
29 77
29 53
29 41
41 89
41 77
41 53
53 89
53 77
65 66
65 67
65 69
65 70
65 81
65 82
65 84
65 86
65 87
65 91
77 89
13 57
13 35
13 24
13 4
24 57
24 35
24 4
35 57
35 4
46 68
46 3
46 8
46 10
46 42
46 59
46 60
46 61
46 63
46 64
46 66
46 67
46 69
46 70
46 81
46 82
46 84
46 86
46 87
46 91
46 79
46 90
46 6
46 7
46 9
46 11
46 12
46 14
46 72
46 71
46 58
46 56
46 55
46 54
46 52
46 51
46 50
46 48
57 4
68 3
68 8
68 10
68 42
68 59
68 60
68 61
68 63
68 64
68 66
68 67
68 69
68 70
68 81
68 82
68 84
68 86
68 87
68 91
68 79
68 90
68 6
68 7
68 9
68 11
68 12
68 14
68 75
68 73
68 72
68 71
68 58
68 56
68 55
68 54
68 52
68 51
68 50
68 48
3 8
3 10
3 42
3 59
3 60
3 61
3 63
3 64
3 66
3 67
3 69
3 70
3 81
3 82
3 84
3 86
3 87
3 91
3 6
3 7
3 9
3 11
3 12
3 14
3 76
3 75
3 73
3 72
3 71
3 58
3 56
3 55
3 54
3 52
3 51
3 50
3 48
6 7
8 10
8 42
8 59
8 60
8 61
8 63
8 64
8 66
8 67
8 69
8 70
8 81
8 82
8 84
8 86
8 87
8 91
8 9
8 11
8 12
8 14
10 42
10 59
10 60
10 61
10 63
10 64
10 66
10 67
10 69
10 70
10 81
10 82
10 84
10 86
10 87
10 91
10 11
10 12
10 14
10 56
10 55
10 54
10 52
10 51
10 50
10 48
11 12
15 16
15 21
15 23
15 25
15 26
15 27
15 28
15 30
15 31
15 32
15 33
15 34
15 37
15 38
15 39
15 40
15 43
15 44
15 45
15 47
15 48
15 50
15 51
15 52
15 54
15 55
15 56
15 58
15 71
15 72
15 73
15 75
15 76
15 78
15 80
15 85
15 92
15 93
15 94
15 95
15 97
15 98
15 99
15 100
15 17
15 29
15 41
15 53
15 77
15 89
15 18
15 19
15 20
15 87
15 86
15 84
15 82
15 81
15 70
15 69
15 67
15 66
15 64
15 63
15 61
15 60
15 59
15 91
15 42
16 21
16 23
16 25
16 26
16 27
16 28
16 30
16 31
16 32
16 33
16 34
16 37
16 38
16 39
16 40
16 43
16 44
16 45
16 47
16 48
16 50
16 51
16 52
16 54
16 55
16 56
16 58
16 71
16 72
16 73
16 75
16 76
16 78
16 80
16 85
16 92
16 93
16 94
16 95
16 97
16 98
16 99
16 100
16 17
16 29
16 41
16 53
16 77
16 89
16 18
16 19
16 20
18 20
18 19
19 20
21 23
21 25
21 26
21 27
21 28
21 30
21 31
21 32
21 33
21 34
21 37
21 38
21 39
21 40
21 43
21 44
21 45
21 47
21 48
21 50
21 51
21 52
21 54
21 55
21 56
21 58
21 71
21 72
21 73
21 75
21 76
21 78
21 80
21 85
21 92
21 93
21 94
21 95
21 97
21 98
21 99
21 100
21 29
21 41
21 53
21 77
21 89
21 59
22 36
22 49
22 62
22 74
22 83
22 88
22 96
22 65
22 42
22 59
22 60
22 61
22 63
22 64
22 66
22 67
22 69
22 70
22 81
22 82
22 84
22 86
22 87
22 91
22 85
22 80
22 78
22 76
22 75
22 73
22 72
22 71
22 58
22 56
22 55
22 54
22 52
22 51
22 50
22 48
22 47
22 40
22 89
22 77
22 53
22 41
22 29
22 100
22 99
22 98
22 97
22 95
22 94
22 93
22 92
22 44
22 45
22 43
23 25
23 26
23 27
23 28
23 30
23 31
23 32
23 33
23 34
23 37
23 38
23 39
23 40
23 43
23 44
23 45
23 47
23 48
23 50
23 51
23 52
23 54
23 55
23 56
23 58
23 71
23 72
23 73
23 75
23 76
23 78
23 80
23 85
23 92
23 93
23 94
23 95
23 97
23 98
23 99
23 100
23 29
23 41
23 53
23 77
23 89
23 60
23 59
25 26
25 27
25 28
25 30
25 31
25 32
25 33
25 34
25 37
25 38
25 39
25 40
25 43
25 44
25 45
25 47
25 48
25 50
25 51
25 52
25 54
25 55
25 56
25 58
25 71
25 72
25 73
25 75
25 76
25 78
25 80
25 85
25 92
25 93
25 94
25 95
25 97
25 98
25 99
25 100
25 29
25 41
25 53
25 77
25 89
25 61
25 60
25 59
26 27
26 28
26 30
26 31
26 32
26 33
26 34
26 37
26 38
26 39
26 40
26 43
26 44
26 45
26 47
26 48
26 50
26 51
26 52
26 54
26 55
26 56
26 58
26 71
26 72
26 73
26 75
26 76
26 78
26 80
26 85
26 92
26 93
26 94
26 95
26 97
26 98
26 99
26 100
26 29
26 41
26 53
26 77
26 89
26 63
26 61
26 60
26 59
27 28
27 30
27 31
27 32
27 33
27 34
27 37
27 38
27 39
27 40
27 43
27 44
27 45
27 47
27 48
27 50
27 51
27 52
27 54
27 55
27 56
27 58
27 71
27 72
27 73
27 75
27 76
27 78
27 80
27 85
27 92
27 93
27 94
27 95
27 97
27 98
27 99
27 100
27 29
27 41
27 53
27 77
27 89
27 64
27 63
27 61
27 60
27 59
28 30
28 31
28 32
28 33
28 34
28 37
28 38
28 39
28 40
28 43
28 44
28 45
28 47
28 48
28 50
28 51
28 52
28 54
28 55
28 56
28 58
28 71
28 72
28 73
28 75
28 76
28 78
28 80
28 85
28 92
28 93
28 94
28 95
28 97
28 98
28 99
28 100
28 29
28 41
28 53
28 77
28 89
28 66
28 64
28 63
28 61
28 60
28 59
30 31
30 32
30 33
30 34
30 37
30 38
30 39
30 40
30 43
30 44
30 45
30 47
30 48
30 50
30 51
30 52
30 54
30 55
30 56
30 58
30 71
30 72
30 73
30 75
30 76
30 78
30 80
30 85
30 92
30 93
30 94
30 95
30 97
30 98
30 99
30 100
30 41
30 53
30 77
30 89
30 67
30 66
30 64
30 63
30 61
30 60
30 59
31 32
31 33
31 34
31 37
31 38
31 39
31 40
31 43
31 44
31 45
31 47
31 48
31 50
31 51
31 52
31 54
31 55
31 56
31 58
31 71
31 72
31 73
31 75
31 76
31 78
31 80
31 85
31 92
31 93
31 94
31 95
31 97
31 98
31 99
31 100
31 41
31 53
31 77
31 89
31 69
31 67
31 66
31 64
31 63
31 61
31 60
31 59
32 33
32 34
32 37
32 38
32 39
32 40
32 43
32 44
32 45
32 47
32 48
32 50
32 51
32 52
32 54
32 55
32 56
32 58
32 71
32 72
32 73
32 75
32 76
32 78
32 80
32 85
32 92
32 93
32 94
32 95
32 97
32 98
32 99
32 100
32 41
32 53
32 77
32 89
33 34
33 37
33 38
33 39
33 40
33 43
33 44
33 45
33 47
33 48
33 50
33 51
33 52
33 54
33 55
33 56
33 58
33 71
33 72
33 73
33 75
33 76
33 78
33 80
33 85
33 92
33 93
33 94
33 95
33 97
33 98
33 99
33 100
33 41
33 53
33 77
33 89
34 37
34 38
34 39
34 40
34 43
34 44
34 45
34 47
34 48
34 50
34 51
34 52
34 54
34 55
34 56
34 58
34 71
34 72
34 73
34 75
34 76
34 78
34 80
34 85
34 92
34 93
34 94
34 95
34 97
34 98
34 99
34 100
34 41
34 53
34 77
34 89
36 49
36 62
36 74
36 83
36 88
36 96
36 65
36 42
36 59
36 60
36 61
36 63
36 64
36 66
36 67
36 69
36 70
36 81
36 82
36 84
36 86
36 87
36 91
36 80
36 78
36 76
36 75
36 73
36 72
36 71
36 58
36 56
36 55
36 54
36 52
36 51
36 50
36 48
37 38
37 39
37 40
37 43
37 44
37 45
37 47
37 48
37 50
37 51
37 52
37 54
37 55
37 56
37 58
37 71
37 72
37 73
37 75
37 76
37 78
37 80
37 85
37 92
37 93
37 94
37 95
37 97
37 98
37 99
37 100
37 41
37 53
37 77
37 89
38 39
38 40
38 43
38 44
38 45
38 47
38 48
38 50
38 51
38 52
38 54
38 55
38 56
38 58
38 71
38 72
38 73
38 75
38 76
38 78
38 80
38 85
38 92
38 93
38 94
38 95
38 97
38 98
38 99
38 100
38 41
38 53
38 77
38 89
39 40
39 43
39 44
39 45
39 47
39 48
39 50
39 51
39 52
39 54
39 55
39 56
39 58
39 71
39 72
39 73
39 75
39 76
39 78
39 80
39 85
39 92
39 93
39 94
39 95
39 97
39 98
39 99
39 100
39 41
39 53
39 77
39 89
40 77
40 100
40 97
40 95
40 78
40 92
40 94
40 76
40 93
40 80
40 73
40 71
40 89
40 75
40 72
40 58
40 56
40 55
40 54
40 52
40 51
40 50
40 48
40 44
40 45
40 43
42 91
42 86
42 82
42 87
42 84
42 81
42 70
42 69
42 67
42 66
42 64
42 63
42 61
42 60
42 59
43 100
43 97
43 95
43 78
43 92
43 77
43 94
43 76
43 93
43 89
43 73
43 71
43 75
43 72
43 58
43 56
43 55
43 54
43 52
43 51
43 50
43 48
43 80
44 77
44 100
44 97
44 95
44 78
44 92
44 94
44 76
44 93
44 89
44 73
44 71
44 75
44 72
44 58
44 56
44 55
44 54
44 52
44 51
44 50
44 48
44 80
45 77
45 100
45 97
45 95
45 78
45 92
45 94
45 76
45 93
45 89
45 73
45 71
45 75
45 72
45 58
45 56
45 55
45 54
45 52
45 51
45 50
45 48
45 80
47 73
47 71
47 75
47 72
47 58
47 56
47 55
47 54
47 52
47 51
47 50
47 48
48 85
48 80
48 78
48 76
48 75
48 73
48 72
48 71
48 58
48 56
48 55
48 54
48 52
48 51
48 50
48 89
48 77
48 53
48 100
48 99
48 98
48 97
48 95
48 94
48 93
48 92
49 62
49 74
49 83
49 88
49 96
49 65
49 59
49 60
49 61
49 63
49 64
49 66
49 67
49 69
49 70
49 81
49 82
49 84
49 86
49 87
49 91
50 85
50 80
50 78
50 76
50 75
50 73
50 72
50 71
50 58
50 56
50 55
50 54
50 52
50 51
50 89
50 77
50 53
50 100
50 99
50 98
50 97
50 95
50 94
50 93
50 92
51 85
51 80
51 78
51 76
51 75
51 73
51 72
51 71
51 58
51 56
51 55
51 54
51 52
51 89
51 77
51 53
51 100
51 99
51 98
51 97
51 95
51 94
51 93
51 92
52 85
52 80
52 78
52 76
52 75
52 73
52 72
52 71
52 58
52 56
52 55
52 54
52 89
52 77
52 53
52 100
52 99
52 98
52 97
52 95
52 94
52 93
52 92
54 85
54 80
54 78
54 76
54 75
54 73
54 72
54 71
54 58
54 56
54 55
54 89
54 77
54 100
54 99
54 98
54 97
54 95
54 94
54 93
54 92
55 85
55 80
55 78
55 76
55 75
55 73
55 72
55 71
55 58
55 56
55 89
55 77
55 100
55 99
55 98
55 97
55 95
55 94
55 93
55 92
56 85
56 80
56 78
56 76
56 75
56 73
56 72
56 71
56 58
56 89
56 77
56 100
56 99
56 98
56 97
56 95
56 94
56 93
56 92
58 85
58 80
58 78
58 76
58 75
58 73
58 72
58 71
58 89
58 77
58 100
58 99
58 98
58 97
58 95
58 94
58 93
58 92
59 87
59 86
59 84
59 82
59 81
59 70
59 69
59 67
59 66
59 64
59 63
59 61
59 60
59 91
60 87
60 86
60 84
60 82
60 81
60 70
60 69
60 67
60 66
60 64
60 63
60 61
60 91
61 87
61 86
61 84
61 82
61 81
61 70
61 69
61 67
61 66
61 64
61 63
61 91
62 74
62 83
62 88
62 96
62 65
62 63
62 64
62 66
62 67
62 69
62 70
62 81
62 82
62 84
62 86
62 87
62 91
63 87
63 86
63 84
63 82
63 81
63 70
63 69
63 67
63 66
63 64
63 91
64 87
64 86
64 84
64 82
64 81
64 70
64 69
64 67
64 66
64 91
66 87
66 86
66 84
66 82
66 81
66 70
66 69
66 67
66 91
67 87
67 86
67 84
67 82
67 81
67 70
67 69
67 91
69 87
69 86
69 84
69 82
69 81
69 70
69 91
70 87
70 86
70 84
70 82
70 81
70 91
71 85
71 80
71 78
71 76
71 75
71 73
71 72
71 89
71 77
71 100
71 99
71 98
71 97
71 95
71 94
71 93
71 92
72 85
72 80
72 78
72 76
72 75
72 73
72 89
72 77
72 100
72 99
72 98
72 97
72 95
72 94
72 93
72 92
73 85
73 80
73 78
73 76
73 75
73 89
73 77
73 100
73 99
73 98
73 97
73 95
73 94
73 93
73 92
74 83
74 88
74 96
74 81
74 82
74 84
74 86
74 87
74 91
75 85
75 80
75 78
75 76
75 89
75 77
75 100
75 99
75 98
75 97
75 95
75 94
75 93
75 92
76 85
76 80
76 78
76 89
76 77
76 100
76 99
76 98
76 97
76 95
76 94
76 93
76 92
78 85
78 80
78 89
78 100
78 99
78 98
78 97
78 95
78 94
78 93
78 92
80 85
80 89
80 100
80 99
80 98
80 97
80 95
80 94
80 93
80 92
81 87
81 86
81 84
81 82
81 91
82 87
82 86
82 84
82 91
83 88
83 96
83 84
83 86
83 87
83 91
84 87
84 86
84 91
85 89
85 100
85 99
85 98
85 97
85 95
85 94
85 93
85 92
86 87
86 91
87 91
88 96
88 91
92 100
92 99
92 98
92 97
92 95
92 94
92 93
93 100
93 99
93 98
93 97
93 95
93 94
94 100
94 99
94 98
94 97
94 95
95 100
95 99
95 98
95 97
97 100
97 99
97 98
98 100
98 99
99 100
